SAT
96 94 70 -83 65 66 49 -5 20 -63 -73 -18 -11 16 53 72 -24 80 -38 -74 -60 -22 58 -31 3 -54 -64 -76 -50 48 -67 -81 79 -89 43 -56 84 47 55 42 -100 -91 -93 37 -14 2 1 -44 69 -92 -82 68 -10 46 97 -41 -34 99 75 12 59 7 -8 57 77 13 -45 -28 4 98 -9 -88 -27 26 -87 35 -29 30 95 78 -21 -90 33 15 40 -19 -71 23 51 39 -6 85 -61 -25 -32 17 -52 36 62 -86 0
